/*********************************************
 * OPL 12.8.0.0 Data
 * Author: HP
 * Creation Date: Jul 2, 2022 at 5:28:31 PM
 *********************************************/
t=6;
i=2;
r=1;
D=[[8,8],
	[12,13],
	[6,12],
	[8,14],
	[13,7],
	[15,5]];
E=[[[10],[10]],
	[[10],[10]],
	[[10],[10]],	
	[[10],[10]],	
	[[10],[10]],	
	[[10],[10]]];
X=[[0,0],[0,0],[0,0]];